sat
(:added-eqs                   9795
 :arith-bound-propagations-lp 31518
 :arith-conflicts             421
 :arith-fixed-eqs             2619
 :arith-lower                 48820
 :arith-make-feasible         20704
 :arith-max-columns           870
 :arith-max-rows              441
 :arith-offset-eqs            7255
 :arith-upper                 38929
 :binary-propagations         61156
 :conflicts                   640
 :decisions                   13963
 :del-clause                  103
 :final-checks                1
 :max-memory                  31.15
 :memory                      21.01
 :minimized-lits              1458
 :mk-bool-var                 3799
 :mk-clause                   1430
 :mk-clause-binary            5299
 :num-allocs                  55425090
 :num-checks                  1
 :propagations                74159
 :restarts                    3
 :rlimit-count                1553885
 :solve-eqs-elim-vars         355
 :solve-eqs-steps             2203
 :time                        0.71
 :total-time                  0.74)
